DIMENSION: 20
EDGE_WEIGHT_TYPE: EXPLICIT
EDGE_WEIGHT_FORMAT: FULL_MATRIX
EDGE_WEIGHT_SECTION:
32767 32767 32767 32767 32767 32767 2 32767 32767 14 32767 17 32767 32767 99 32767 3 12 32767 32767 
32767 32767 32767 32767 32767 32767 45 84 78 32767 79 43 32767 32767 32767 32767 32767 32767 32767 32767 
32767 32767 32767 32767 91 32767 3 69 32767 32767 32767 32767 32767 5 32767 34 32767 32767 93 32767 
32767 32767 32767 32767 23 40 32767 32767 32767 32767 32767 32767 32767 32767 32767 32767 32767 32767 32767 32767 
32767 32767 91 23 32767 32767 32767 79 32767 32767 32767 32767 32767 36 32767 32767 32767 32767 32767 32767 
32767 32767 32767 40 32767 32767 32767 32767 32767 32767 32767 32767 32767 51 32767 32767 82 32767 32767 32767 
2 45 3 32767 32767 32767 32767 32767 32767 57 32767 31 32767 32767 32767 66 32767 66 32767 32767 
32767 84 69 32767 79 32767 32767 32767 32767 32767 32767 63 32767 32767 32767 32767 32767 32767 32767 87 
32767 78 32767 32767 32767 32767 32767 32767 32767 47 32767 32767 32767 32767 32767 32767 45 32767 32767 32767 
14 32767 32767 32767 32767 32767 57 32767 47 32767 32767 32767 32767 32767 32767 32767 32767 32767 32767 44 
32767 79 32767 32767 32767 32767 32767 32767 32767 32767 32767 32767 32767 7 99 29 32767 32767 32767 32767 
17 43 32767 32767 32767 32767 31 63 32767 32767 32767 32767 32767 32767 32767 32767 32767 32767 32767 96 
32767 32767 32767 32767 32767 32767 32767 32767 32767 32767 32767 32767 32767 28 32767 32767 32767 24 30 32767 
32767 32767 5 32767 36 51 32767 32767 32767 32767 7 32767 28 32767 57 32767 32767 59 32767 32767 
99 32767 32767 32767 32767 32767 32767 32767 32767 32767 99 32767 32767 57 32767 32767 32767 32767 1 32767 
32767 32767 34 32767 32767 32767 66 32767 32767 32767 29 32767 32767 32767 32767 32767 32767 32767 32767 50 
3 32767 32767 32767 32767 82 32767 32767 45 32767 32767 32767 32767 32767 32767 32767 32767 32767 32767 32767 
12 32767 32767 32767 32767 32767 66 32767 32767 32767 32767 32767 24 59 32767 32767 32767 32767 92 76 
32767 32767 93 32767 32767 32767 32767 32767 32767 32767 32767 32767 30 32767 1 32767 32767 92 32767 78 
32767 32767 32767 32767 32767 32767 32767 87 32767 44 32767 96 32767 32767 32767 50 32767 76 78 32767 
EOF